Argumentos: 
./solver.release -i 29 -t 86400 -a 7 -h 86400 -w Testes/Mvic-i29 -m modeloCom2345.mod -o modeloCom2345.mod 
Seed: 1622676164
hidden-TXT/Sc-n110w4.txt
hidden-TXT/H0-n110w4-2.txt
hidden-TXT/WD-n110w4-8.txt hidden-TXT/WD-n110w4-9.txt hidden-TXT/WD-n110w4-9.txt hidden-TXT/WD-n110w4-2.txt 
Reading model section from modeloCom2345.mod...
367 lines were read
Reading data section from Testes/Mvic-i29/29.dat...
19773 lines were read
Generating obj...
Generating H1turnoDia...
Generating H2coberturaMinima...
Generating H3AsucessaoTurnos...
Generating H3BsucessaoTurnos...
Generating H4qualificacao...
Generating S1coberturaOtima...
Generating S2d...
Generating S2dHist...
Generating S2b...
Generating S2bHist...
Generating aux1S2a...
Generating auxS2a...
Generating aux3S2a...
Generating aux4S2a...
Generating s2aMin2...
Generating s2aHistMin2...
Generating s2aMin3...
Generating s2aHistMin3h1...
Generating s2aHistMin3h2...
Generating s2aMin4...
Generating s2aHistMin4h1...
Generating s2aHistMin4h2...
Generating s2aHistMin4h3...
Generating s2aMin5...
Generating s2aHistMin5h1...
Generating s2aHistMin5h2...
Generating s2aHistMin5h3...
Generating s2aHistMin5h4...
Generating auxS2b...
Generating aux1S2b...
Generating aux3S2b...
Generating aux4S2b...
Generating s2b...
Generating s2bHist...
Generating s2bMin3turnos...
Generating s2bHistMin3h1turnos...
Generating s2bHistMin3h2turnos...
Generating s2bMin4...
Generating s2bHistMin4h1...
Generating s2bHistMin4h2...
Generating s2bHistMin4h3...
Generating s2bMin5...
Generating s2bHistMin5h1...
Generating s2bHistMin5h2...
Generating s2bHistMin5h3...
Generating s2bHistMin5h34...
Generating auxS5...
Generating S6a...
Generating S6b...
Generating auxS7...
Generating S7...
Model has been successfully generated
Writing problem data to `Testes/Mvic-i29/29.lp'...
717106 lines were written
CPX0000  Tried aggregator 2 times.
CPX0000  MIP Presolve eliminated 24378 rows and 51969 columns.
CPX0000  MIP Presolve modified 5950 coefficients.
CPX0000  Aggregator did 343 substitutions.
CPX0000  Reduced MIP has 69369 rows, 78995 columns, and 529412 nonzeros.
CPX0000  Reduced MIP has 78354 binaries, 641 generals, 0 SOSs, and 0 indicators.
CPX0000  Presolve time = 1.03 sec. (595.55 ticks)
CPX0000  Found incumbent of value 1506580.000000 after 3.24 sec. (1939.39 ticks)
[1m[30m[ZEN] [0m00:00:03 [1m[34m1506580.00[1m[32m  100.00%
[0mCPX0000  Probing time = 0.07 sec. (21.52 ticks)
CPX0000  Tried aggregator 1 time.
CPX0000  Reduced MIP has 69369 rows, 78995 columns, and 529412 nonzeros.
CPX0000  Reduced MIP has 78354 binaries, 641 generals, 0 SOSs, and 0 indicators.
CPX0000  Presolve time = 0.32 sec. (212.53 ticks)
CPX0000  Probing time = 0.06 sec. (20.73 ticks)
CPX0000  Clique table members: 16320.
CPX0000  MIP emphasis: balance optimality and feasibility.
CPX0000  MIP search method: dynamic search.
CPX0000  Parallel mode: none, using 1 thread.
CPX0000  Root relaxation solution time = 302.65 sec. (69496.98 ticks)
CPX0000
CPX0000          Nodes                                         Cuts/
CPX0000     Node  Left     Objective  IInf  Best Integer    Best Bound    ItCnt     Gap
CPX0000
CPX0000  *     0+    0                      1506580.0000       10.0000    68688  100.00%
CPX0000        0     0     1080.2246  7519  1506580.0000     1080.2246    68688   99.93%
CPX0000        0     0     1318.2851  7717  1506580.0000    Cuts: 3764   112142   99.91%
CPX0000        0     0     1479.5780  7892  1506580.0000    Cuts: 3205   158584   99.90%
CPX0000        0     0     1503.6668  8300  1506580.0000    Cuts: 2914   208427   99.90%
CPX0000  *     0+    0                       330815.0000     1503.6668   208427   99.55%
[1m[30m[ZEN] [0m00:24:22 [1m[34m 330815.00[1m[32m   99.55%
[0mCPX0000        0     0     1525.5589  8255   330815.0000    Cuts: 2691   260866   99.54%
CPX0000        0     0     1548.1001  8444   330815.0000    Cuts: 2658   306418   99.53%
CPX0000        0     0     1571.7894  8553   330815.0000    Cuts: 2504   356040   99.52%
CPX0000        0     0     1582.9027  8714   330815.0000    Cuts: 2583   405539   99.52%
CPX0000        0     0     1620.5822  8835   330815.0000    Cuts: 2578   459055   99.51%
CPX0000        0     0     1641.8595  8392   330815.0000    Cuts: 2575   524637   99.50%
CPX0000        0     0     1662.3005  7990   330815.0000    Cuts: 2364   601080   99.50%
CPX0000        0     0     1678.0195  8794   330815.0000    Cuts: 2544   648901   99.49%
CPX0000        0     0     1689.8318  8624   330815.0000    Cuts: 2493   707115   99.49%
CPX0000        0     0     1718.8180  8623   330815.0000    Cuts: 2401   756793   99.48%
CPX0000        0     0     1736.5644  8778   330815.0000    Cuts: 2452   806959   99.48%
CPX0000        0     0     1753.3353  8871   330815.0000    Cuts: 2439   859711   99.47%
CPX0000        0     0     1766.7460  9218   330815.0000    Cuts: 2344   913713   99.47%
CPX0000        0     0     1777.1344  9182   330815.0000    Cuts: 2526   973700   99.46%
CPX0000        0     0     1786.9311  9187   330815.0000    Cuts: 2378  1031346   99.46%
CPX0000        0     0     1794.6220  9577   330815.0000    Cuts: 2388  1093223   99.46%
CPX0000        0     0     1809.1026  9573   330815.0000    Cuts: 2451  1158219   99.45%
CPX0000        0     0     1819.2911  9447   330815.0000    Cuts: 2285  1215680   99.45%
CPX0000        0     0     1832.6020  9233   330815.0000    Cuts: 2364  1269554   99.45%
CPX0000        0     0     1850.8210  9196   330815.0000    Cuts: 2356  1328580   99.44%
CPX0000        0     0     1858.2542  9096   330815.0000    Cuts: 2207  1396553   99.44%
CPX0000        0     0     1870.7940  9056   330815.0000    Cuts: 2378  1465406   99.43%
CPX0000        0     0     1879.7294  9083   330815.0000    Cuts: 2326  1546372   99.43%
CPX0000        0     0     1890.1335  9003   330815.0000    Cuts: 2354  1607397   99.43%
CPX0000        0     0     1893.2499  9058   330815.0000    Cuts: 2229  1668082   99.43%
CPX0000        0     0     1900.8958  9395   330815.0000    Cuts: 2279  1728482   99.43%
CPX0000        0     0     1915.4693  9254   330815.0000    Cuts: 2245  1780404   99.42%
CPX0000        0     0     1924.3024  8935   330815.0000    Cuts: 2254  1837105   99.42%
CPX0000        0     0     1935.7530  8908   330815.0000    Cuts: 2151  1892792   99.41%
CPX0000        0     0     1944.7248  9107   330815.0000    Cuts: 2334  1951026   99.41%
CPX0000        0     0     1951.5088  9100   330815.0000    Cuts: 2230  2008696   99.41%
CPX0000        0     0     1956.1988  9029   330815.0000    Cuts: 2261  2067178   99.41%
CPX0000        0     0     1966.0088  9328   330815.0000    Cuts: 2339  2123155   99.41%
CPX0000        0     0     1970.3897  9364   330815.0000    Cuts: 2396  2226283   99.40%
CPX0000        0     0     1979.5903  9486   330815.0000    Cuts: 2486  2281255   99.40%
CPX0000        0     0     1992.8960  9265   330815.0000    Cuts: 2186  2355986   99.40%
CPX0000        0     0     2000.2753  9462   330815.0000    Cuts: 2369  2416468   99.40%
CPX0000        0     0     2006.5437  9391   330815.0000    Cuts: 2358  2481958   99.39%
CPX0000        0     0     2014.8429  9288   330815.0000    Cuts: 2268  2701258   99.39%
CPX0000        0     0     2019.6715  8634   330815.0000    Cuts: 2733  2801028   99.39%
CPX0000        0     0     2024.6055  8960   330815.0000    Cuts: 2572  2866902   99.39%
CPX0000        0     0     2031.4540  8632   330815.0000    Cuts: 2346  3054528   99.39%
CPX0000        0     0     2035.0663  8644   330815.0000    Cuts: 2556  3152502   99.38%
CPX0000        0     0     2045.2540  8763   330815.0000    Cuts: 2436  3218935   99.38%
CPX0000        0     0     2051.6356  8975   330815.0000    Cuts: 2312  3297445   99.38%
CPX0000        0     0     2055.2717  8656   330815.0000    Cuts: 2305  3473106   99.38%
CPX0000        0     0     2060.1518  8671   330815.0000    Cuts: 2532  3531449   99.38%
CPX0000        0     0     2067.7925  9155   330815.0000    Cuts: 2592  3578544   99.37%
CPX0000        0     0     2074.1952  9094   330815.0000    Cuts: 2306  3665734   99.37%
CPX0000        0     0     2078.7431  9063   330815.0000    Cuts: 2523  3725580   99.37%
CPX0000        0     0     2084.4880  9099   330815.0000    Cuts: 2335  3805702   99.37%
CPX0000        0     0     2091.5895  9028   330815.0000    Cuts: 2453  3879733   99.37%
CPX0000        0     0     2098.4318  9125   330815.0000    Cuts: 2452  4002878   99.37%
CPX0000        0     0     2103.7496  9225   330815.0000    Cuts: 2557  4074172   99.36%
CPX0000        0     0     2112.7135  9783   330815.0000    Cuts: 2413  4118336   99.36%
CPX0000        0     0     2117.7390  9216   330815.0000    Cuts: 2154  4182143   99.36%
CPX0000        0     0     2130.2124  9117   330815.0000    Cuts: 2183  4257571   99.36%
CPX0000        0     0     2135.6976  9693   330815.0000    Cuts: 2354  4318667   99.35%
CPX0000        0     0     2146.6573  9446   330815.0000    Cuts: 2303  4370566   99.35%
CPX0000        0     0     2157.0930  9304   330815.0000    Cuts: 2329  4425619   99.35%
CPX0000        0     0     2167.0978  9198   330815.0000    Cuts: 1988  4477469   99.34%
CPX0000        0     0     2171.2348  9146   330815.0000    Cuts: 1965  4560389   99.34%
CPX0000        0     0     2176.3874  9384   330815.0000    Cuts: 2477  4611186   99.34%
CPX0000        0     0     2182.9564  9365   330815.0000    Cuts: 2480  4676640   99.34%
CPX0000        0     0     2194.1690  9147   330815.0000    Cuts: 2081  4753942   99.34%
CPX0000        0     0     2198.9536  8953   330815.0000    Cuts: 2028  4858942   99.34%
CPX0000        0     0     2206.5211  9233   330815.0000    Cuts: 2228  4923066   99.33%
CPX0000        0     0     2215.2785  8999   330815.0000    Cuts: 2305  5011099   99.33%
CPX0000        0     0     2220.8297  9249   330815.0000    Cuts: 2502  5068257   99.33%
CPX0000        0     0     2228.8757  9330   330815.0000    Cuts: 2091  5140548   99.33%
CPX0000        0     0     2235.3171  9097   330815.0000    Cuts: 2031  5200284   99.32%
CPX0000        0     0     2238.2257  9295   330815.0000    Cuts: 2252  5248662   99.32%
CPX0000        0     0     2243.7317  9247   330815.0000    Cuts: 2268  5301779   99.32%
CPX0000        0     0     2248.6872  9461   330815.0000    Cuts: 2157  5475463   99.32%
CPX0000        0     0     2254.9573  8916   330815.0000    Cuts: 2123  5627970   99.32%
CPX0000        0     0     2261.0290  8220   330815.0000    Cuts: 1982  5759003   99.32%
CPX0000        0     0     2262.9280  8527   330815.0000    Cuts: 2225  5834794   99.32%
CPX0000        0     0     2264.3707  8921   330815.0000    Cuts: 2152  5910881   99.32%
CPX0000        0     0     2268.2516  8913   330815.0000    Cuts: 1894  5985829   99.31%
CPX0000        0     0     2271.8708  8559   330815.0000    Cuts: 2009  6045868   99.31%
CPX0000        0     0     2273.8215  8878   330815.0000    Cuts: 2135  6107295   99.31%
CPX0000        0     0     2282.2536  8917   330815.0000    Cuts: 2095  6165346   99.31%
CPX0000        0     0     2288.3160  8607   330815.0000    Cuts: 1933  6233863   99.31%
CPX0000        0     0     2289.9421  8857   330815.0000    Cuts: 1950  6311457   99.31%
CPX0000  Heuristic still looking.
CPX0000  Heuristic still looking.
CPX0000  Heuristic still looking.
CPX0000  *     0+    0                        96920.0000     2289.9421  6311457   97.64%
CPX0000  *     0+    0                        68645.0000     2289.9421  6311457   96.66%
CPX0000  *     0+    0                         8900.0000     2289.9421  6311457   74.27%
CPX0000  *     0+    0                         8825.0000     2289.9421  6311457   74.05%
CPX0000  *     0+    0                         8770.0000     2289.9421  6311457   73.89%
[1m[30m[ZEN] [0m19:56:24 [1m[34m   8770.00[1m[32m   73.89%
[0mCPX0000        0     2     2289.9421  8857     8770.0000     2289.9421  6311457   73.89%
CPX0000  Elapsed time = 71784.37 sec. (14153245.42 ticks, tree = 0.00 MB
CPX0000        1     3     2289.9421  8197     8770.0000     2289.9421  6423350   73.89%
CPX0000        2     4     2289.9421  8135     8770.0000     2289.9421  6476902   73.89%
CPX0000        3     5     2289.9421  8046     8770.0000     2289.9421  6532564   73.89%
CPX0000        4     6     2293.1939  7672     8770.0000     2289.9421  6638508   73.89%
CPX0000        5     7     2299.5939  7579     8770.0000     2289.9421  6690916   73.89%
CPX0000        6     8     2293.1939  8134     8770.0000     2289.9421  6854179   73.89%
CPX0000        7     9     2308.7606  7404     8770.0000     2289.9421  6871451   73.89%
CPX0000        8    10     2300.3400  7918     8770.0000     2289.9421  6908566   73.89%
CPX0000        9    11     2314.2289  7430     8770.0000     2289.9421  6939382   73.89%
CPX0000       10    12     2309.3856  7583     8770.0000     2289.9421  7018893   73.89%
CPX0000  Elapsed time = 76881.38 sec. (15002595.46 ticks, tree = 2.68 MB
CPX0000       11    13     2314.2289  7560     8770.0000     2289.9421  7040796   73.89%
CPX0000       12    14     2314.2289  7444     8770.0000     2289.9421  7106282   73.89%
CPX0000       13    15     2317.0622  7393     8770.0000     2289.9421  7171500   73.89%
CPX0000       14    16     2314.2289  7441     8770.0000     2289.9421  7186923   73.89%
CPX0000       15    17     2314.2289  7518     8770.0000     2289.9421  7265505   73.89%
CPX0000       16    18     2314.2289  7388     8770.0000     2289.9421  7278641   73.89%
CPX0000       17    19     2315.0622  7453     8770.0000     2289.9421  7295379   73.89%
CPX0000       18    20     2315.8314  7633     8770.0000     2289.9421  7330693   73.89%
CPX0000       19    21     2315.0622  7353     8770.0000     2289.9421  7382817   73.89%
CPX0000       20    22     2315.0622  7382     8770.0000     2289.9421  7451906   73.89%
CPX0000  Elapsed time = 78929.02 sec. (15372792.31 ticks, tree = 2.94 MB
CPX0000       21    23     2315.0622  7804     8770.0000     2289.9421  7568760   73.89%
CPX0000       22    24     2322.3088  7258     8770.0000     2289.9421  7589277   73.89%
CPX0000       23    25     2318.7533  7223     8770.0000     2289.9421  7642109   73.89%
CPX0000       24    26     2318.7533  7796     8770.0000     2289.9421  7687203   73.89%
CPX0000       25    27     2318.7533  7222     8770.0000     2289.9421  7731483   73.89%
CPX0000       26    28     2318.7533  7346     8770.0000     2289.9421  7760271   73.89%
CPX0000       27    29     2318.7533  7218     8770.0000     2289.9421  7800962   73.89%
CPX0000       28    30     2318.7533  7709     8770.0000     2289.9421  7844263   73.89%
CPX0000       29    31     2318.7533  7730     8770.0000     2289.9421  7882000   73.89%
CPX0000       30    32     2323.0395  7216     8770.0000     2289.9421  7968844   73.89%
CPX0000  Elapsed time = 81773.83 sec. (15904676.32 ticks, tree = 7.43 MB
CPX0000       31    33     2323.0395  7048     8770.0000     2289.9421  8026921   73.89%
CPX0000       32    34     2324.7061  6939     8770.0000     2289.9421  8043970   73.89%
CPX0000       33    35     2327.1223  6962     8770.0000     2289.9421  8057718   73.89%
CPX0000       34    36     2324.7061  6979     8770.0000     2289.9421  8078003   73.89%
CPX0000       35    37     2324.7061  7039     8770.0000     2289.9421  8114641   73.89%
CPX0000       36    38     2324.7329  7251     8770.0000     2289.9421  8202227   73.89%
CPX0000       37    39     2327.7077  6931     8770.0000     2289.9421  8213206   73.89%
CPX0000       38    40     2327.7077  6944     8770.0000     2289.9421  8216720   73.89%
CPX0000       39    41     2334.6364  7117     8770.0000     2289.9421  8242676   73.89%
CPX0000       40    42     2334.6364  6971     8770.0000     2289.9421  8316050   73.89%
CPX0000  Elapsed time = 83217.30 sec. (16149499.72 ticks, tree = 8.58 MB
CPX0000       41    43     2327.7077  6937     8770.0000     2289.9421  8326039   73.89%
CPX0000       42    44     2327.7077  6886     8770.0000     2289.9421  8334232   73.89%
CPX0000       43    45     2327.7077  6947     8770.0000     2289.9421  8341399   73.89%
CPX0000       44    46     2327.7077  6834     8770.0000     2289.9421  8357752   73.89%
CPX0000       45    47     2327.7077  6824     8770.0000     2289.9421  8362860   73.89%
CPX0000       46    48     2327.7077  6842     8770.0000     2289.9421  8365237   73.89%
CPX0000       47    49     2327.7077  6810     8770.0000     2289.9421  8370641   73.89%
CPX0000       48    50     2329.2878  6852     8770.0000     2289.9421  8380266   73.89%
CPX0000       49    51     2327.7077  6821     8770.0000     2289.9421  8394000   73.89%
CPX0000       50    52     2328.3555  6812     8770.0000     2289.9421  8402464   73.89%
CPX0000  Elapsed time = 83848.80 sec. (16273525.94 ticks, tree = 11.85 MB
CPX0000       51    53     2329.2878  6748     8770.0000     2289.9421  8415345   73.89%
CPX0000       52    54     2329.2878  6807     8770.0000     2289.9421  8421357   73.89%
CPX0000       53    55     2331.2668  6857     8770.0000     2289.9421  8443370   73.89%
CPX0000       54    56     2329.2878  6818     8770.0000     2289.9421  8456222   73.89%
CPX0000       55    57     2329.2878  6825     8770.0000     2289.9421  8464315   73.89%
CPX0000       56    58     2329.2878  6837     8770.0000     2289.9421  8466990   73.89%
CPX0000       57    59     2334.9545  6788     8770.0000     2289.9421  8472857   73.89%
CPX0000       58    60     2329.2878  6766     8770.0000     2289.9421  8477484   73.89%
CPX0000       59    61     2329.2878  6779     8770.0000     2289.9421  8479530   73.89%
CPX0000       60    62     2333.0378  6962     8770.0000     2289.9421  8508091   73.89%
CPX0000  Elapsed time = 84989.02 sec. (16495409.34 ticks, tree = 15.73 MB
CPX0000       61    63     2329.2878  6861     8770.0000     2289.9421  8518975   73.89%
CPX0000       62    64     2333.0378  7185     8770.0000     2289.9421  8554788   73.89%
CPX0000       63    65     2329.2878  6847     8770.0000     2289.9421  8565359   73.89%
CPX0000       64    66     2329.2878  6606     8770.0000     2289.9421  8585157   73.89%
CPX0000       65    67     2329.2878  6582     8770.0000     2289.9421  8598022   73.89%
CPX0000       66    68     2329.2878  6574     8770.0000     2289.9421  8618805   73.89%
CPX0000       67    69     2329.2878  6562     8770.0000     2289.9421  8650278   73.89%
CPX0000       68    70     2344.3729  6575     8770.0000     2289.9421  8710809   73.89%
CPX0000       69    71     2337.8729  6708     8770.0000     2289.9421  8781158   73.89%
CPX0000       70    72     2344.3729  6563     8770.0000     2289.9421  8783391   73.89%
CPX0000  Elapsed time = 86094.25 sec. (16688863.26 ticks, tree = 17.22 MB
CPX0000       71    73     2344.3729  6542     8770.0000     2289.9421  8790035   73.89%
CPX0000       73    75     2344.3729  6484     8770.0000     2289.9421  8801275   73.89%
CPX0000       74    76     2345.2396  6484     8770.0000     2289.9421  8809297   73.89%
CPX0000       75    77     2352.3149  6563     8770.0000     2289.9421  8830735   73.89%
CPX0000
CPX0000  GUB cover cuts applied:  742
CPX0000  Clique cuts applied:  673
CPX0000  Cover cuts applied:  4
CPX0000  Implied bound cuts applied:  13
CPX0000  Mixed integer rounding cuts applied:  58
CPX0000  Zero-half cuts applied:  6846
CPX0000  Lift and project cuts applied:  1
CPX0000  Gomory fractional cuts applied:  14
CPX0000
CPX0000  Root node processing (before b&c):
CPX0000    Real time             = 71784.25 sec. (14153167.25 ticks)
CPX0000  Sequential b&c:
CPX0000    Real time             = 14615.96 sec. (2595719.68 ticks)
CPX0000                            ------------
CPX0000  Total (root+branch&cut) = 86400.20 sec. (16748886.93 ticks)
H2 understaffing: 0
H3 shiftTypeSuccessions: 0
S1 optimalCoverage: 1590
S2a consecutiveShift: 360 = (24,0 )
S2b consecutiveWorkingDays: 390 = ( 13,0 )
S3 consecutiveDaysOff: 3240 = ( 9,99 )
S4 preferences: 340
S5 completeWeekend: 0
S6 totalAssignments: 2700
S7 totalWorkingWeekeends: 150
 

Cost Solution: 8770

       |M|T|W|T|F|S|S| |M|T|W|T|F|S|S| |M|T|W|T|F|S|S| |M|T|W|T|F|S|S|
------------------------------------------------------------------------
HN_0   |-|-|N|N|N|N|N| |-|-|-|L|L|N|N| |N|N|-|-|-|-|-| |-|L|L|L|L|-|-|
HN_1   |-|-|-|L|L|-|-| |D|D|-|-|-|-|-| |L|L|-|-|-|-|-| |-|E|E|D|D|-|D|
HN_2   |-|-|-|E|E|-|-| |-|-|-|E|E|-|-| |-|-|-|L|L|-|-| |-|L|L|-|-|-|-|
HN_3   |N|-|L|L|L|-|-| |L|L|L|L|L|-|-| |L|L|L|L|L|-|-| |L|L|L|L|L|-|-|
HN_4   |E|-|-|-|-|-|-| |D|D|D|D|D|-|-| |-|-|D|D|L|-|-| |-|-|-|-|-|N|N|
HN_5   |E|E|E|-|-|-|-| |-|-|D|D|D|-|-| |-|-|L|L|L|-|-| |-|L|L|-|-|-|-|
HN_6   |E|E|E|-|-|-|-| |E|E|E|E|-|-|-| |N|N|N|N|N|-|-| |-|-|-|-|-|-|-|
HN_7   |-|D|D|D|D|D|E| |E|-|-|-|E|E|E| |E|-|-|-|-|-|-| |E|E|E|E|-|-|-|
HN_8   |L|L|L|L|L|-|-| |-|-|E|E|N|N|N| |N|-|-|-|D|D|D| |D|-|-|-|-|-|-|
HN_9   |D|D|D|-|-|-|-| |-|-|D|D|D|-|-| |-|-|D|D|E|-|-| |-|-|-|-|-|E|E|
HN_10  |-|E|E|E|E|E|L| |L|-|-|-|L|L|L| |N|N|N|N|-|-|-| |-|-|-|-|-|-|-|
HN_11  |-|-|-|D|D|-|-| |-|-|-|D|D|-|-| |D|D|-|-|-|-|-| |D|D|D|D|-|-|D|
HN_12  |-|-|-|-|-|-|-| |N|N|N|N|N|-|-| |-|-|L|L|L|-|-| |-|-|-|-|N|N|N|
HN_13  |-|D|D|D|D|-|-| |-|L|L|L|L|-|-| |-|E|E|D|D|-|-| |-|-|-|-|N|N|N|
HN_14  |-|-|-|-|E|E|L| |L|-|-|-|-|-|-| |D|D|D|-|-|-|-| |D|D|D|-|-|-|-|
HN_15  |D|-|-|-|D|D|D| |D|-|-|-|D|D|D| |D|N|-|-|-|-|-| |N|N|N|N|-|-|-|
HN_16  |L|L|L|L|L|-|-| |N|N|N|N|N|-|-| |-|-|-|-|N|N|N| |N|-|-|-|E|E|E|
HN_17  |L|L|L|-|-|-|-| |L|L|L|-|-|-|-| |E|E|E|-|-|-|-| |-|-|-|E|E|L|L|
HN_18  |N|-|-|-|N|N|N| |N|N|-|-|-|-|-| |N|N|N|N|N|-|-| |N|N|N|N|N|-|-|
HN_19  |N|N|N|N|-|-|-| |E|E|E|E|E|-|-| |-|-|-|-|D|-|-| |-|-|D|D|D|D|L|
NU_20  |-|N|N|N|N|-|-| |-|-|-|-|-|D|D| |D|-|-|-|-|-|-| |N|N|N|N|-|-|-|
NU_21  |E|-|D|D|D|-|-| |D|D|D|D|D|-|-| |N|N|N|N|N|-|-| |N|N|N|N|N|-|-|
NU_22  |E|E|E|E|E|-|-| |N|N|N|N|N|-|-| |E|E|E|-|-|E|E| |E|-|-|-|E|E|L|
NU_23  |-|-|-|-|N|N|N| |N|N|-|-|-|-|-| |-|-|E|E|E|-|-| |-|-|E|E|E|-|-|
NU_24  |-|-|-|-|-|-|-| |E|E|E|-|-|-|-| |L|L|L|-|-|-|-| |N|N|N|N|N|-|-|
NU_25  |-|-|-|-|N|N|N| |N|-|-|-|-|-|-| |E|E|E|-|-|-|-| |N|N|N|N|-|-|-|
NU_26  |D|D|D|D|D|-|-| |-|-|-|D|D|-|-| |-|-|-|D|D|-|-| |-|D|D|-|-|-|D|
NU_27  |-|D|D|D|E|L|-| |N|N|N|N|N|-|-| |E|E|-|-|N|N|N| |N|N|-|-|-|-|-|
NU_28  |E|-|-|-|-|-|-| |L|L|-|-|-|-|-| |E|E|E|-|-|-|-| |-|-|D|D|D|D|D|
NU_29  |-|-|-|-|-|E|E| |E|E|-|-|-|D|D| |N|N|N|N|N|-|-| |-|N|N|N|N|-|-|
NU_30  |D|D|D|E|E|-|-| |-|-|E|E|E|-|-| |-|-|D|D|D|-|-| |-|-|-|-|-|-|-|
NU_31  |L|L|L|L|-|-|-| |-|-|E|E|E|-|-| |-|-|-|-|L|L|L| |L|-|-|-|-|-|-|
NU_32  |N|N|N|-|-|E|E| |E|L|L|-|-|-|-| |N|N|N|N|-|-|-| |D|D|L|L|-|-|-|
NU_33  |E|-|-|N|N|N|N| |-|-|L|L|L|-|-| |-|L|L|L|-|-|-| |E|E|D|D|D|-|-|
NU_34  |-|-|L|L|-|-|-| |-|-|-|-|L|L|-| |-|-|-|E|E|E|N| |-|-|E|E|L|L|-|
NU_35  |-|-|-|-|-|-|-| |L|L|L|L|L|-|-| |-|-|E|E|D|D|D| |-|-|-|E|E|E|E|
NU_36  |N|N|N|N|-|-|-| |-|-|-|-|D|D|D| |D|-|-|-|-|-|-| |E|E|E|-|-|-|-|
NU_37  |D|-|-|-|-|-|-| |E|E|E|-|-|-|-| |L|L|L|-|-|-|-| |-|-|-|L|L|L|L|
NU_38  |L|L|L|-|-|-|-| |L|L|L|L|L|-|-| |-|L|L|L|L|-|-| |L|L|L|L|L|-|-|
NU_39  |D|-|-|-|-|D|D| |D|L|L|-|-|-|-| |L|L|L|L|L|-|-| |-|N|N|N|N|-|-|
CT_40  |-|-|-|D|D|-|-| |N|N|N|N|N|-|-| |-|-|-|E|E|-|-| |E|E|-|-|-|-|D|
CT_41  |-|-|-|-|D|D|-| |-|L|L|-|-|-|-| |-|-|-|E|E|-|-| |-|-|-|D|D|-|-|
CT_42  |-|-|D|D|D|-|-| |N|N|N|N|N|-|-| |N|N|N|N|N|-|-| |-|-|D|D|D|E|E|
CT_43  |-|-|-|L|L|-|-| |-|-|-|-|E|E|-| |-|-|-|D|D|-|-| |L|L|-|-|-|-|-|
CT_44  |-|-|L|L|L|-|-| |-|-|-|-|L|L|L| |L|-|-|-|-|-|-| |D|D|E|E|-|-|-|
CT_45  |L|L|L|L|-|-|-| |-|-|-|-|E|E|E| |E|-|-|-|-|-|-| |E|E|N|N|N|N|N|
CT_46  |-|-|-|-|-|-|-| |-|-|D|D|D|-|-| |-|-|D|D|D|-|-| |-|L|L|L|-|-|-|
CT_47  |E|-|D|D|D|-|-| |E|E|E|E|E|-|-| |E|E|-|D|D|D|L| |L|-|-|L|L|L|L|
CT_48  |-|N|N|N|N|-|-| |-|-|-|L|L|-|-| |-|-|-|-|-|-|-| |-|-|N|N|N|N|N|
CT_49  |D|D|E|E|-|-|-| |D|D|D|E|E|-|-| |E|E|E|D|D|-|-| |D|D|D|D|D|-|-|
CT_50  |D|D|-|-|-|L|L| |L|L|-|-|-|D|D| |D|L|L|-|-|-|-| |N|N|N|N|-|-|-|
CT_51  |E|E|E|-|-|-|-| |D|D|D|D|D|-|-| |-|-|-|-|E|E|E| |-|-|-|-|-|-|-|
CT_52  |D|D|L|L|L|-|-| |-|-|E|E|E|E|E| |-|-|-|-|-|D|D| |D|E|E|-|-|-|-|
CT_53  |N|N|N|N|N|-|-| |-|-|E|E|E|-|-| |-|-|-|-|L|L|L| |-|-|-|-|-|-|-|
CT_54  |N|N|-|-|-|D|D| |D|L|L|-|-|-|-| |L|L|L|L|L|-|-| |L|L|L|L|L|-|-|
CT_55  |L|L|-|-|-|-|-| |E|E|E|-|-|-|-| |-|-|-|D|D|-|-| |-|-|L|L|L|L|L|
CT_56  |-|-|-|-|-|-|-| |D|D|-|-|-|-|-| |D|D|-|-|-|-|-| |-|L|L|-|-|-|D|
CT_57  |-|-|E|E|E|-|-| |-|-|-|N|N|N|N| |N|-|-|-|-|-|-| |-|-|D|D|D|-|-|
CT_58  |-|E|E|-|-|-|-| |-|-|-|D|D|D|-| |-|-|-|N|N|N|-| |-|-|-|D|D|-|-|
CT_59  |-|D|D|L|L|L|L| |-|-|-|-|-|-|-| |D|D|E|E|E|-|-| |-|E|E|L|L|-|-|
CT_60  |L|-|-|-|-|-|-| |E|E|E|E|-|-|-| |-|-|D|D|E|E|E| |-|-|-|-|-|-|-|
CT_61  |L|L|L|-|-|-|-| |-|-|N|N|N|N|-| |-|-|-|E|E|-|-| |D|D|-|-|-|-|-|
CT_62  |E|E|E|E|E|-|-| |L|L|L|L|L|-|-| |D|D|D|D|D|-|-| |-|-|N|N|N|N|N|
CT_63  |E|E|E|E|-|-|-| |D|D|L|L|-|-|-| |L|L|L|L|-|-|-| |-|-|-|-|E|E|E|
CT_64  |N|N|-|-|-|-|-| |L|L|L|-|-|-|-| |N|N|N|N|N|-|-| |-|-|-|-|N|-|-|
CT_65  |L|N|N|N|N|-|-| |D|D|D|D|D|-|-| |N|N|N|N|N|-|-| |-|-|D|D|D|D|L|
CT_66  |N|-|-|-|L|L|L| |L|-|-|-|L|L|L| |L|L|-|-|-|-|-| |E|E|E|E|E|-|-|
CT_67  |-|D|D|-|-|-|-| |-|-|-|D|D|-|-| |-|-|-|-|N|N|N| |N|N|-|-|-|-|-|
CT_68  |-|N|N|N|N|-|-| |-|-|-|-|L|L|L| |L|-|-|-|-|-|-| |E|E|E|-|-|-|-|
CT_69  |-|D|D|D|-|-|-| |N|N|-|-|-|-|-| |-|-|E|E|E|-|-| |-|-|-|-|D|D|E|
CT_70  |L|L|L|L|-|-|-| |E|E|E|E|-|-|-| |D|D|D|L|L|L|L| |-|-|-|-|-|-|-|
CT_71  |E|E|L|L|L|-|-| |L|L|-|-|-|-|-| |-|-|N|N|N|N|-| |-|-|-|E|E|-|-|
CT_72  |-|-|-|-|E|E|-| |-|-|-|D|D|-|-| |D|D|-|-|-|-|-| |-|-|D|D|-|-|-|
CT_73  |E|E|-|-|-|D|D| |D|-|-|-|-|-|-| |E|E|-|-|-|-|-| |-|-|E|E|-|-|-|
CT_74  |-|-|-|-|E|E|-| |-|-|-|L|L|-|-| |L|L|-|-|-|-|-| |-|L|L|-|-|-|-|
CT_75  |-|-|D|D|D|E|E| |-|-|-|-|E|E|E| |E|L|L|-|-|-|-| |D|D|D|D|-|-|-|
CT_76  |N|-|E|E|E|-|-| |D|D|D|D|L|-|-| |N|N|N|N|N|-|-| |E|E|E|-|-|D|D|
CT_77  |N|N|N|N|N|-|-| |N|N|N|N|N|-|-| |D|D|D|L|L|-|-| |D|D|D|E|E|-|-|
CT_78  |L|L|-|-|-|-|-| |N|N|N|N|N|-|-| |D|D|E|E|E|-|-| |L|L|L|L|L|-|-|
CT_79  |-|-|N|N|N|N|-| |-|-|-|L|L|-|-| |-|-|-|-|L|L|-| |-|-|-|L|L|-|-|
TR_80  |-|D|D|D|D|-|-| |-|-|E|E|E|E|E| |L|L|-|-|-|-|-| |-|E|E|E|E|-|-|
TR_81  |D|D|D|-|-|-|-| |-|-|-|D|D|E|E| |E|-|-|-|-|-|-| |D|D|D|-|-|-|-|
TR_82  |-|-|-|D|D|D|E| |E|-|-|-|-|-|-| |D|D|D|D|-|-|-| |-|L|L|L|L|-|-|
TR_83  |D|-|-|-|E|E|N| |N|N|N|-|-|-|-| |D|D|D|L|L|-|-| |-|-|-|-|E|E|E|
TR_84  |D|D|D|D|-|-|-| |D|D|D|D|-|-|-| |N|N|N|N|N|-|-| |-|-|-|-|-|-|-|
TR_85  |D|D|-|-|-|-|-| |E|E|E|-|-|-|-| |-|L|L|L|-|-|-| |-|-|-|-|D|D|-|
TR_86  |-|-|-|E|E|E|E| |E|-|-|-|-|-|-| |E|E|E|-|-|-|-| |L|L|L|-|-|-|-|
TR_87  |-|E|E|E|E|-|-| |-|-|D|D|N|N|N| |N|-|-|-|E|E|E| |L|L|-|-|-|-|-|
TR_88  |N|N|N|N|-|-|-| |N|N|N|N|-|-|-| |L|-|-|-|D|D|D| |D|-|-|-|-|L|L|
TR_89  |L|L|-|-|L|L|L| |L|L|-|-|-|-|-| |E|E|E|D|D|-|-| |N|N|N|N|N|-|-|
TR_90  |N|-|-|-|-|-|-| |E|E|E|-|-|-|-| |-|D|D|D|D|-|-| |-|-|-|-|D|D|D|
TR_91  |-|-|L|L|L|-|-| |D|D|D|L|L|-|-| |L|L|L|-|-|L|L| |L|L|L|-|-|L|L|
TR_92  |-|-|D|D|-|-|-| |-|-|-|L|L|-|-| |-|-|-|-|L|L|-| |-|-|E|E|-|-|-|
TR_93  |-|-|-|-|N|N|N| |N|-|-|-|-|-|-| |D|D|D|-|-|-|-| |E|E|E|E|-|-|-|
TR_94  |-|L|L|L|-|-|-| |N|N|N|N|N|-|-| |-|-|E|E|E|-|-| |-|-|-|-|-|E|E|
TR_95  |N|N|N|N|N|-|-| |-|-|-|E|E|-|-| |-|-|N|N|N|N|-| |-|-|D|D|D|-|-|
TR_96  |E|E|E|E|-|-|-| |E|E|E|L|L|L|L| |-|-|-|-|N|N|N| |N|-|-|-|-|-|-|
TR_97  |L|L|-|-|D|D|L| |L|L|-|-|D|D|D| |-|-|D|D|D|-|-| |N|N|N|N|N|-|-|
TR_98  |-|L|L|L|L|-|-| |-|-|-|-|-|-|-| |D|D|E|E|E|-|-| |-|D|D|D|N|N|N|
TR_99  |E|E|E|E|-|-|-| |-|-|-|-|-|L|L| |N|N|N|N|-|-|-| |D|D|D|D|D|-|-|
TR_100 |N|N|N|N|N|-|-| |D|D|E|E|E|-|-| |E|E|E|L|L|-|-| |N|N|N|N|N|-|-|
TR_101 |N|N|N|N|N|-|-| |D|D|D|D|D|-|-| |L|L|L|L|L|-|-| |L|L|L|L|L|-|-|
TR_102 |-|-|-|L|L|-|-| |-|-|-|E|E|-|-| |E|E|-|-|-|-|-| |E|E|-|-|-|-|-|
TR_103 |-|-|E|E|E|-|-| |-|-|-|-|D|D|D| |D|-|-|-|-|-|-| |D|D|D|D|-|-|-|
TR_104 |E|-|L|L|L|-|-| |L|L|L|L|-|-|-| |L|L|L|-|-|E|E| |E|-|-|E|E|E|D|
TR_105 |N|N|N|-|-|-|-| |L|L|L|N|N|N|N| |-|-|-|-|-|-|-| |L|L|L|L|L|-|-|
TR_106 |E|-|E|E|E|-|-| |N|N|N|N|N|-|-| |N|N|N|N|N|-|-| |N|N|N|N|N|-|-|
TR_107 |E|E|L|L|-|-|-| |L|L|L|L|L|-|-| |-|-|-|-|D|D|D| |D|D|-|-|-|-|-|
TR_108 |-|-|-|D|D|-|-| |E|E|N|N|N|-|-| |-|-|-|E|E|-|-| |-|-|-|N|N|N|N|
TR_109 |L|L|-|-|-|D|D| |D|D|D|-|-|-|-| |N|N|N|N|-|-|-| |-|E|E|E|E|-|-|


Hard constraint violations
--------------------------

Minimal coverage constraints: 0
Required skill constraints: 0
Illegal shift type succession constraints: 0
Single assignment per day: 0


Cost per constraint type
------------------------

Total assignment constraints: 2700
Consecutive constraints: 750
Non working days constraints: 3240
Preferences: 340
Max working weekend: 150
Complete weekends: 0
Optimal coverage constraints: 1590

------------------------

Total cost: 8770
